c 48_4_checker_6cl.cnf
c
c field = 48
c formula set type = 4_checker_6cl
c
p cnf 6 14
92 
96 
98 
100 
-90 
-102 
93 
97 
99 
101 
-91 
-103 
96 
98 
100 
102 
-92 
-104 
97 
99 
101 
103 
-93 
-105 
34 
64 
124 
154 
-4 
-184 
35 
65 
125 
155 
-5 
-185 
64 
124 
154 
184 
-34 
-214 
65 
125 
155 
185 
-35 
-215 
124 
154 
184 
214 
-64 
-244 
125 
155 
185 
215 
-65 
-245 
62 
126 
158 
190 
-30 
-222 
63 
127 
159 
191 
-31 
-223 
126 
158 
190 
222 
-62 
-254 
127 
159 
191 
223 
-63 
-255 
